&control
    calculation = 'scf',
    prefix = 'espresso',
    outdir = './out/'
    pseudo_dir = './pseudo'
/
&SYSTEM
    a                         =  7.58000
    c                         =  19.1400
	degauss                   =  0.01
    ecutrho                   =  200
    ecutwfc                   =  35
    ibrav                     = 6
    nat                       = 96
    nspin                     = 2
    ntyp                      = 2
    occupations               = "smearing"
    smearing                  = "gaussian"
	starting_magnetization(1) =  0.2
    starting_magnetization(2) =  0
/

&ELECTRONS
    conv_thr         =  0.000001
    electron_maxstep = 200
    mixing_beta      =  0.4
    startingpot      = "atomic"
    startingwfc      = "atomic+random"
/

ATOMIC_SPECIES
Ti     47.86700  Ti.pbe-sp-van_ak.UPF
O      15.99940  O.pbe-rrkjus.UPF

ATOMIC_POSITIONS {angstrom}
Ti      0.000000   0.000000   0.000000
Ti      1.895000   1.895000   4.785000
Ti      0.000000   1.895000   2.392500
Ti      1.895000   0.000000   7.177500
Ti      0.000000   0.000000   9.570000
Ti      1.895000   1.895000  14.354999
Ti      0.000000   1.895000  11.962499
Ti      1.895000   0.000000  16.747499
Ti      0.000000   3.790000   0.000000
Ti      1.895000   5.685000   4.785000
Ti      3.790000   1.895000   2.392500
Ti      5.685000   0.000000   7.177500
Ti      1.895000   3.790000   7.177500
Ti      0.000000   5.685000   2.392500
Ti      5.685000   1.895000   4.785000
Ti      3.790000   0.000000   0.000000
Ti      0.000000   3.790000   9.570000
Ti      1.895000   5.685000  14.354999
Ti      3.790000   1.895000  11.962499
Ti      5.685000   0.000000  16.747499
Ti      1.895000   3.790000  16.747499
Ti      0.000000   5.685000  11.962499
Ti      5.685000   1.895000  14.354999
Ti      3.790000   0.000000   9.570000
Ti      3.790000   3.790000   0.000000
Ti      5.685000   5.685000   4.785000
Ti      3.790000   5.685000   2.392500
Ti      5.685000   3.790000   7.177500
Ti      3.790000   3.790000   9.570000
Ti      5.685000   5.685000  14.354999
Ti      3.790000   5.685000  11.962499
Ti      5.685000   3.790000  16.747499
O       0.000000   0.000000   1.914000
O       1.895000   1.895000   6.699000
O       0.000000   1.895000   4.306500
O       1.895000   0.000000   9.091500
O       1.895000   0.000000   5.263500
O       0.000000   1.895000   0.478500
O       1.895000   1.895000   2.871000
O       0.000000   0.000000  17.225999
O       0.000000   0.000000  11.483999
O       1.895000   1.895000  16.268999
O       0.000000   1.895000  13.876499
O       1.895000   0.000000  18.661499
O       1.895000   0.000000  14.833499
O       0.000000   1.895000  10.048499
O       1.895000   1.895000  12.440999
O       0.000000   0.000000   7.656000
O       0.000000   3.790000   1.914000
O       1.895000   5.685000   6.699000
O       3.790000   1.895000   4.306500
O       5.685000   0.000000   9.091500
O       1.895000   3.790000   5.263500
O       0.000000   5.685000   0.478500
O       5.685000   1.895000   2.871000
O       3.790000   0.000000  17.225999
O       0.000000   3.790000  11.483999
O       1.895000   5.685000  16.268999
O       3.790000   1.895000  13.876499
O       5.685000   0.000000  18.661499
O       1.895000   3.790000  14.833499
O       0.000000   5.685000  10.048499
O       5.685000   1.895000  12.440999
O       3.790000   0.000000   7.656000
O       3.790000   0.000000   1.914000
O       5.685000   1.895000   6.699000
O       0.000000   5.685000   4.306500
O       1.895000   3.790000   9.091500
O       5.685000   0.000000   5.263500
O       3.790000   1.895000   0.478500
O       1.895000   5.685000   2.871000
O       0.000000   3.790000  17.225999
O       3.790000   0.000000  11.483999
O       5.685000   1.895000  16.268999
O       0.000000   5.685000  13.876499
O       1.895000   3.790000  18.661499
O       5.685000   0.000000  14.833499
O       3.790000   1.895000  10.048499
O       1.895000   5.685000  12.440999
O       0.000000   3.790000   7.656000
O       3.790000   3.790000   1.914000
O       5.685000   5.685000   6.699000
O       3.790000   5.685000   4.306500
O       5.685000   3.790000   9.091500
O       5.685000   3.790000   5.263500
O       3.790000   5.685000   0.478500
O       5.685000   5.685000   2.871000
O       3.790000   3.790000  17.225999
O       3.790000   3.790000  11.483999
O       5.685000   5.685000  16.268999
O       3.790000   5.685000  13.876499
O       5.685000   3.790000  18.661499
O       5.685000   3.790000  14.833499
O       3.790000   5.685000  10.048499
O       5.685000   5.685000  12.440999
O       3.790000   3.790000   7.656000

K_POINTS (automatic)
 3  3  3  0 0 0


